rcpsp/heur_output_or_constraints/Log=2/heurj90.txt
encoding rcpsp/j90.sm/j9028_2.sm nv: 4897061 nc: 9833626 enctime: 72.55
encoding rcpsp/j90.sm/j9028_2.sm nv: 610860 nc: 1223755 enctime: 7.89
c File: j9028_2.smnaiveor2.wcnf
c optimal
c final solution cost: 53
c CPU time: 14.038163
s OPTIMUM FOUND

c File: j9028_2.smor2.wcnf
c optimal
c final solution cost: 53
c CPU time: 1.222409
s OPTIMUM FOUND


rcpsp/heur_output_or_constraints/Log=2/heurj90.txt
encoding rcpsp/j90.sm/j9028_3.sm nv: 3910960 nc: 7900708 enctime: 60.21
encoding rcpsp/j90.sm/j9028_3.sm nv: 693880 nc: 1398820 enctime: 10.03
c File: j9028_3.smnaiveor2.wcnf
c optimal
c final solution cost: 86
c CPU time: 11.127425
s OPTIMUM FOUND

c File: j9028_3.smor2.wcnf
c optimal
c final solution cost: 86
c CPU time: 1.627978
s OPTIMUM FOUND


rcpsp/heur_output_or_constraints/Log=2/heurj90.txt
encoding rcpsp/j90.sm/j9028_4.sm nv: 4349682 nc: 8769926 enctime: 66.23
encoding rcpsp/j90.sm/j9028_4.sm nv: 599058 nc: 1204742 enctime: 7.63
c File: j9028_4.smnaiveor2.wcnf
c optimal
c final solution cost: 67
c CPU time: 12.437872
s OPTIMUM FOUND

c File: j9028_4.smor2.wcnf
c optimal
c final solution cost: 67
c CPU time: 1.477486
s OPTIMUM FOUND


rcpsp/heur_output_or_constraints/Log=2/heurj90.txt
encoding rcpsp/j90.sm/j9028_5.sm nv: 5231616 nc: 10512142 enctime: 77.87
encoding rcpsp/j90.sm/j9028_5.sm nv: 725478 nc: 1454443 enctime: 9.16
c File: j9028_5.smnaiveor2.wcnf
c optimal
c final solution cost: 69
c CPU time: 15.311713
s OPTIMUM FOUND

c File: j9028_5.smor2.wcnf
c optimal
c final solution cost: 69
c CPU time: 1.703937
s OPTIMUM FOUND


rcpsp/heur_output_or_constraints/Log=2/heurj90.txt
encoding rcpsp/j90.sm/j9028_6.sm nv: 4868916 nc: 9815435 enctime: 75.62
encoding rcpsp/j90.sm/j9028_6.sm nv: 635076 nc: 1276915 enctime: 6.31
c File: j9028_6.smnaiveor2.wcnf
c optimal
c final solution cost: 61
c CPU time: 13.826326
s OPTIMUM FOUND

c File: j9028_6.smor2.wcnf
c optimal
c final solution cost: 61
c CPU time: 1.324720
s OPTIMUM FOUND


rcpsp/heur_output_or_constraints/Log=2/heurj90.txt
encoding rcpsp/j90.sm/j9028_7.sm nv: 4199650 nc: 8464408 enctime: 64.27
encoding rcpsp/j90.sm/j9028_7.sm nv: 583050 nc: 1172144 enctime: 7.33
c File: j9028_7.smnaiveor2.wcnf
c optimal
c final solution cost: 68
c CPU time: 12.183272
s OPTIMUM FOUND

c File: j9028_7.smor2.wcnf
c optimal
c final solution cost: 68
c CPU time: 1.075060
s OPTIMUM FOUND


rcpsp/heur_output_or_constraints/Log=2/heurj90.txt
encoding rcpsp/j90.sm/j9028_8.sm nv: 3440880 nc: 6959551 enctime: 54.59
encoding rcpsp/j90.sm/j9028_8.sm nv: 559320 nc: 1128462 enctime: 5.54
c File: j9028_8.smnaiveor2.wcnf
c optimal
c final solution cost: 75
c CPU time: 10.570302
s OPTIMUM FOUND

c File: j9028_8.smor2.wcnf
c optimal
c final solution cost: 75
c CPU time: 1.570913
s OPTIMUM FOUND


rcpsp/heur_output_or_constraints/Log=2/heurj90.txt
encoding rcpsp/j90.sm/j9028_9.sm nv: 3884808 nc: 7825284 enctime: 59.46
encoding rcpsp/j90.sm/j9028_9.sm nv: 651592 nc: 1309852 enctime: 8.11
c File: j9028_9.smnaiveor2.wcnf
c optimal
c final solution cost: 77
c CPU time: 11.046754
s OPTIMUM FOUND

c File: j9028_9.smor2.wcnf
c optimal
c final solution cost: 77
c CPU time: 1.513122
s OPTIMUM FOUND


rcpsp/heur_output_or_constraints/Log=2/heurj90.txt
encoding rcpsp/j90.sm/j902_8.sm nv: 595595 nc: 1352672 enctime: 17.75
encoding rcpsp/j90.sm/j902_8.sm nv: 81770 nc: 182267 enctime: 1.34
c File: j902_8.smnaiveor2.wcnf
c optimal
c final solution cost: 70
c CPU time: 4.757210
s OPTIMUM FOUND

c File: j902_8.smor2.wcnf
c optimal
c final solution cost: 70
c CPU time: 0.246595
s OPTIMUM FOUND


rcpsp/heur_output_or_constraints/Log=2/heurj90.txt
encoding rcpsp/j90.sm/j9029_10.sm nv: 2752074 nc: 5626401 enctime: 46.25
encoding rcpsp/j90.sm/j9029_10.sm nv: 735372 nc: 1500687 enctime: 9.89
c File: j9029_10.smnaiveor2.wcnf
c timeout
c final solution cost: 142
c CPU time: 66.665716
s UNKNOWN

c File: j9029_10.smor2.wcnf
c timeout
c CPU time: 61.019202
s UNKNOWN


rcpsp/heur_output_or_constraints/Log=2/heurj90.txt
encoding rcpsp/j90.sm/j9029_1.sm nv: 2155964 nc: 4408732 enctime: 35.68
encoding rcpsp/j90.sm/j9029_1.sm nv: 729934 nc: 1490592 enctime: 9.44
c File: j9029_1.smnaiveor2.wcnf
c timeout
c final solution cost: 144
c CPU time: 65.057555
s UNKNOWN

c File: j9029_1.smor2.wcnf
c timeout
c final solution cost: 139
c CPU time: 61.269960
s UNKNOWN


rcpsp/heur_output_or_constraints/Log=2/heurj90.txt
encoding rcpsp/j90.sm/j9029_2.sm nv: 2714608 nc: 5550169 enctime: 46.09
encoding rcpsp/j90.sm/j9029_2.sm nv: 771693 nc: 1575234 enctime: 9.10
c File: j9029_2.smnaiveor2.wcnf
c timeout
c final solution cost: 138
c CPU time: 66.218596
s UNKNOWN

c File: j9029_2.smor2.wcnf
c timeout
c CPU time: 61.075795
s UNKNOWN


rcpsp/heur_output_or_constraints/Log=2/heurj90.txt
encoding rcpsp/j90.sm/j9029_3.sm nv: 2262330 nc: 4650038 enctime: 40.11
encoding rcpsp/j90.sm/j9029_3.sm nv: 752571 nc: 1544519 enctime: 9.00
c File: j9029_3.smnaiveor2.wcnf
c timeout
c final solution cost: 161
c CPU time: 65.679715
s UNKNOWN

c File: j9029_3.smor2.wcnf
c timeout
c CPU time: 61.119540
s UNKNOWN


rcpsp/heur_output_or_constraints/Log=2/heurj90.txt
encoding rcpsp/j90.sm/j9029_4.sm nv: 2232321 nc: 4584355 enctime: 38.57
encoding rcpsp/j90.sm/j9029_4.sm nv: 765765 nc: 1570347 enctime: 10.03
c File: j9029_4.smnaiveor2.wcnf
c timeout
c final solution cost: 160
c CPU time: 65.465204
s UNKNOWN

c File: j9029_4.smor2.wcnf
c timeout
c CPU time: 61.134761
s UNKNOWN


rcpsp/heur_output_or_constraints/Log=2/heurj90.txt
encoding rcpsp/j90.sm/j9029_5.sm nv: 2860656 nc: 5836587 enctime: 47.08
encoding rcpsp/j90.sm/j9029_5.sm nv: 785508 nc: 1600269 enctime: 10.38
c File: j9029_5.smnaiveor2.wcnf
c timeout
c final solution cost: 125
c CPU time: 66.230659
s UNKNOWN

c File: j9029_5.smor2.wcnf
c timeout
c CPU time: 61.080888
s UNKNOWN


rcpsp/heur_output_or_constraints/Log=2/heurj90.txt
encoding rcpsp/j90.sm/j9029_6.sm nv: 2947276 nc: 6030615 enctime: 50.30
encoding rcpsp/j90.sm/j9029_6.sm nv: 802760 nc: 1639855 enctime: 9.54
c File: j9029_6.smnaiveor2.wcnf
c timeout
c final solution cost: 149
c CPU time: 66.725934
s UNKNOWN

c File: j9029_6.smor2.wcnf
c timeout
c CPU time: 61.103289
s UNKNOWN


rcpsp/heur_output_or_constraints/Log=2/heurj90.txt
encoding rcpsp/j90.sm/j9029_7.sm nv: 2282480 nc: 4712612 enctime: 41.03
encoding rcpsp/j90.sm/j9029_7.sm nv: 837648 nc: 1727104 enctime: 11.18
c File: j9029_7.smnaiveor2.wcnf
c timeout
c final solution cost: 188
c CPU time: 65.807098
s UNKNOWN

c File: j9029_7.smor2.wcnf
c timeout
c CPU time: 61.294734
s UNKNOWN


rcpsp/heur_output_or_constraints/Log=2/heurj90.txt
encoding rcpsp/j90.sm/j9029_8.sm nv: 2550295 nc: 5247783 enctime: 44.97
encoding rcpsp/j90.sm/j9029_8.sm nv: 841940 nc: 1729863 enctime: 11.23
c File: j9029_8.smnaiveor2.wcnf
c timeout
c final solution cost: 167
c CPU time: 66.353165
s UNKNOWN

c File: j9029_8.smor2.wcnf
c timeout
c CPU time: 61.236240
s UNKNOWN


rcpsp/heur_output_or_constraints/Log=2/heurj90.txt
encoding rcpsp/j90.sm/j9029_9.sm nv: 2451400 nc: 5012755 enctime: 41.33
encoding rcpsp/j90.sm/j9029_9.sm nv: 741600 nc: 1514139 enctime: 9.89
c File: j9029_9.smnaiveor2.wcnf
c timeout
c final solution cost: 143
c CPU time: 65.759785
s UNKNOWN

c File: j9029_9.smor2.wcnf
c timeout
c CPU time: 61.056944
s UNKNOWN


rcpsp/heur_output_or_constraints/Log=2/heurj90.txt
encoding rcpsp/j90.sm/j902_9.sm nv: 523640 nc: 1197945 enctime: 16.31
encoding rcpsp/j90.sm/j902_9.sm nv: 74518 nc: 167239 enctime: 0.79
c File: j902_9.smnaiveor2.wcnf
c optimal
c final solution cost: 68
c CPU time: 4.267528
s OPTIMUM FOUND

c File: j902_9.smor2.wcnf
c optimal
c final solution cost: 68
c CPU time: 0.222122
s OPTIMUM FOUND


rcpsp/heur_output_or_constraints/Log=2/heurj90.txt
encoding rcpsp/j90.sm/j9030_10.sm nv: 4127040 nc: 8344195 enctime: 62.88
encoding rcpsp/j90.sm/j9030_10.sm nv: 756624 nc: 1526923 enctime: 9.12
c File: j9030_10.smnaiveor2.wcnf
c timeout
c final solution cost: 87
c CPU time: 67.734518
s UNKNOWN

c File: j9030_10.smor2.wcnf
c timeout
c CPU time: 60.951344
s UNKNOWN


rcpsp/heur_output_or_constraints/Log=2/heurj90.txt
encoding rcpsp/j90.sm/j9030_1.sm nv: 4783047 nc: 9655025 enctime: 72.78
encoding rcpsp/j90.sm/j9030_1.sm nv: 811495 nc: 1634961 enctime: 10.06
c File: j9030_1.smnaiveor2.wcnf
c timeout
c final solution cost: 236
c CPU time: 69.044821
s UNKNOWN

c File: j9030_1.smor2.wcnf
c timeout
c final solution cost: 75
c CPU time: 61.174998
s UNKNOWN


rcpsp/heur_output_or_constraints/Log=2/heurj90.txt
encoding rcpsp/j90.sm/j9030_2.sm nv: 4602988 nc: 9257832 enctime: 67.09
encoding rcpsp/j90.sm/j9030_2.sm nv: 749808 nc: 1505592 enctime: 9.18
c File: j9030_2.smnaiveor2.wcnf
c timeout
c final solution cost: 65
c CPU time: 68.299374
s UNKNOWN

c File: j9030_2.smor2.wcnf
c optimal
c final solution cost: 61
c CPU time: 48.780900
s OPTIMUM FOUND


rcpsp/heur_output_or_constraints/Log=2/heurj90.txt
encoding rcpsp/j90.sm/j9030_3.sm nv: 3649828 nc: 7390992 enctime: 56.74
encoding rcpsp/j90.sm/j9030_3.sm nv: 728448 nc: 1472387 enctime: 8.78
c File: j9030_3.smnaiveor2.wcnf
c timeout
c final solution cost: 92
c CPU time: 67.056182
s UNKNOWN

c File: j9030_3.smor2.wcnf
c timeout
c CPU time: 60.935174
s UNKNOWN


rcpsp/heur_output_or_constraints/Log=2/heurj90.txt
encoding rcpsp/j90.sm/j9030_4.sm nv: 4471704 nc: 9057327 enctime: 69.10
encoding rcpsp/j90.sm/j9030_4.sm nv: 870216 nc: 1759465 enctime: 10.40
c File: j9030_4.smnaiveor2.wcnf
c timeout
c final solution cost: 96
c CPU time: 68.846903
s UNKNOWN

c File: j9030_4.smor2.wcnf
c timeout
c final solution cost: 92
c CPU time: 61.318541
s UNKNOWN


rcpsp/heur_output_or_constraints/Log=2/heurj90.txt
encoding rcpsp/j90.sm/j9030_5.sm nv: 3638880 nc: 7352609 enctime: 55.18
encoding rcpsp/j90.sm/j9030_5.sm nv: 710220 nc: 1432532 enctime: 8.44
c File: j9030_5.smnaiveor2.wcnf
c timeout
c final solution cost: 135
c CPU time: 66.866818
s UNKNOWN

c File: j9030_5.smor2.wcnf
c timeout
c final solution cost: 82
c CPU time: 61.100721
s UNKNOWN


rcpsp/heur_output_or_constraints/Log=2/heurj90.txt
encoding rcpsp/j90.sm/j9030_6.sm nv: 5374656 nc: 10839453 enctime: 81.52
encoding rcpsp/j90.sm/j9030_6.sm nv: 770784 nc: 1551265 enctime: 7.71
c File: j9030_6.smnaiveor2.wcnf
c timeout
c final solution cost: 273
c CPU time: 70.000773
s UNKNOWN

c File: j9030_6.smor2.wcnf
c timeout
c CPU time: 60.936574
s UNKNOWN


rcpsp/heur_output_or_constraints/Log=2/heurj90.txt
encoding rcpsp/j90.sm/j9030_7.sm nv: 4744720 nc: 9589389 enctime: 73.40
encoding rcpsp/j90.sm/j9030_7.sm nv: 831260 nc: 1676993 enctime: 10.19
c File: j9030_7.smnaiveor2.wcnf
c timeout
c final solution cost: 81
c CPU time: 69.074926
s UNKNOWN

c File: j9030_7.smor2.wcnf
c timeout
c final solution cost: 82
c CPU time: 61.219242
s UNKNOWN


rcpsp/heur_output_or_constraints/Log=2/heurj90.txt
encoding rcpsp/j90.sm/j9030_8.sm nv: 5844708 nc: 11795964 enctime: 88.39
encoding rcpsp/j90.sm/j9030_8.sm nv: 838068 nc: 1687924 enctime: 10.63
c File: j9030_8.smnaiveor2.wcnf
c timeout
c final solution cost: 75
c CPU time: 70.827346
s UNKNOWN

c File: j9030_8.smor2.wcnf
c timeout
c final solution cost: 69
c CPU time: 61.191855
s UNKNOWN


rcpsp/heur_output_or_constraints/Log=2/heurj90.txt
encoding rcpsp/j90.sm/j9030_9.sm nv: 4624081 nc: 9376672 enctime: 72.06
encoding rcpsp/j90.sm/j9030_9.sm nv: 892216 nc: 1805932 enctime: 10.77
c File: j9030_9.smnaiveor2.wcnf
c timeout
c CPU time: 68.487374
s UNKNOWN

c File: j9030_9.smor2.wcnf
c timeout
c final solution cost: 93
c CPU time: 61.344775
s UNKNOWN


rcpsp/heur_output_or_constraints/Log=2/heurj90.txt
encoding rcpsp/j90.sm/j903_10.sm nv: 563992 nc: 1250292 enctime: 15.60
encoding rcpsp/j90.sm/j903_10.sm nv: 81224 nc: 177146 enctime: 1.28
c File: j903_10.smnaiveor2.wcnf
c optimal
c final solution cost: 65
c CPU time: 3.184306
s OPTIMUM FOUND

c File: j903_10.smor2.wcnf
c optimal
c final solution cost: 65
c CPU time: 0.178257
s OPTIMUM FOUND


rcpsp/heur_output_or_constraints/Log=2/heurj90.txt
encoding rcpsp/j90.sm/j9031_10.sm nv: 5031180 nc: 10131911 enctime: 74.08
encoding rcpsp/j90.sm/j9031_10.sm nv: 727650 nc: 1462337 enctime: 9.06
c File: j9031_10.smnaiveor2.wcnf
c optimal
c final solution cost: 67
c CPU time: 45.920954
s OPTIMUM FOUND

c File: j9031_10.smor2.wcnf
c optimal
c final solution cost: 67
c CPU time: 3.082938
s OPTIMUM FOUND


rcpsp/heur_output_or_constraints/Log=2/heurj90.txt
encoding rcpsp/j90.sm/j9031_1.sm nv: 5749904 nc: 11548322 enctime: 83.82
encoding rcpsp/j90.sm/j9031_1.sm nv: 974560 nc: 1954514 enctime: 11.99
c File: j9031_1.smnaiveor2.wcnf
c optimal
c final solution cost: 79
c CPU time: 15.637738
s OPTIMUM FOUND

c File: j9031_1.smor2.wcnf
c optimal
c final solution cost: 79
c CPU time: 1.953611
s OPTIMUM FOUND


rcpsp/heur_output_or_constraints/Log=2/heurj90.txt
encoding rcpsp/j90.sm/j9031_2.sm nv: 5726880 nc: 11510392 enctime: 83.79
encoding rcpsp/j90.sm/j9031_2.sm nv: 847101 nc: 1699709 enctime: 10.72
c File: j9031_2.smnaiveor2.wcnf
c timeout
c final solution cost: 326
c CPU time: 70.115247
s UNKNOWN

c File: j9031_2.smor2.wcnf
c optimal
c final solution cost: 59
c CPU time: 44.245538
s OPTIMUM FOUND


rcpsp/heur_output_or_constraints/Log=2/heurj90.txt
encoding rcpsp/j90.sm/j9031_3.sm nv: 5532880 nc: 11127250 enctime: 81.70
encoding rcpsp/j90.sm/j9031_3.sm nv: 775744 nc: 1557100 enctime: 9.88
c File: j9031_3.smnaiveor2.wcnf
c optimal
c final solution cost: 64
c CPU time: 38.833158
s OPTIMUM FOUND

c File: j9031_3.smor2.wcnf
c optimal
c final solution cost: 64
c CPU time: 3.326002
s OPTIMUM FOUND


rcpsp/heur_output_or_constraints/Log=2/heurj90.txt
encoding rcpsp/j90.sm/j9031_4.sm nv: 6604207 nc: 13255127 enctime: 95.60
encoding rcpsp/j90.sm/j9031_4.sm nv: 895026 nc: 1793402 enctime: 11.53
c File: j9031_4.smnaiveor2.wcnf
c optimal
c final solution cost: 59
c CPU time: 18.036714
s OPTIMUM FOUND

c File: j9031_4.smor2.wcnf
c optimal
c final solution cost: 59
c CPU time: 3.856219
s OPTIMUM FOUND


rcpsp/heur_output_or_constraints/Log=2/heurj90.txt
encoding rcpsp/j90.sm/j9031_5.sm nv: 6355620 nc: 12780374 enctime: 94.57
encoding rcpsp/j90.sm/j9031_5.sm nv: 834954 nc: 1675693 enctime: 8.37
c File: j9031_5.smnaiveor2.wcnf
c timeout
c final solution cost: 89
c CPU time: 71.117987
s UNKNOWN

c File: j9031_5.smor2.wcnf
c timeout
c final solution cost: 60
c CPU time: 61.183203
s UNKNOWN


rcpsp/heur_output_or_constraints/Log=2/heurj90.txt
encoding rcpsp/j90.sm/j9031_6.sm nv: 5538500 nc: 11130605 enctime: 81.44
encoding rcpsp/j90.sm/j9031_6.sm nv: 734580 nc: 1473325 enctime: 9.52
c File: j9031_6.smnaiveor2.wcnf
c timeout
c final solution cost: 86
c CPU time: 70.006977
s UNKNOWN

c File: j9031_6.smor2.wcnf
c timeout
c final solution cost: 58
c CPU time: 61.071601
s UNKNOWN


rcpsp/heur_output_or_constraints/Log=2/heurj90.txt
encoding rcpsp/j90.sm/j9031_7.sm nv: 6962956 nc: 13989781 enctime: 101.35
encoding rcpsp/j90.sm/j9031_7.sm nv: 983164 nc: 1972033 enctime: 12.40
c File: j9031_7.smnaiveor2.wcnf
c optimal
c final solution cost: 62
c CPU time: 18.633674
s OPTIMUM FOUND

c File: j9031_7.smor2.wcnf
c optimal
c final solution cost: 62
c CPU time: 2.817541
s OPTIMUM FOUND


rcpsp/heur_output_or_constraints/Log=2/heurj90.txt
encoding rcpsp/j90.sm/j9031_8.sm nv: 5695332 nc: 11439643 enctime: 82.31
encoding rcpsp/j90.sm/j9031_8.sm nv: 785980 nc: 1575873 enctime: 9.99
c File: j9031_8.smnaiveor2.wcnf
c timeout
c CPU time: 68.969361
s UNKNOWN

c File: j9031_8.smor2.wcnf
c timeout
c CPU time: 60.933122
s UNKNOWN


